TYPE : Vertex Cover
DIMENSION: 21
EDGE_DATA_SECTION:
0 2
0 3
0 6
0 12
0 15
0 19
1 3
1 5
2 3
2 4
2 7
2 14
2 15
2 17
2 19
2 20
3 16
3 20
4 18
4 20
5 12
5 15
6 7
6 16
7 12
7 14
7 16
7 19
8 12
8 14
10 14
10 18
11 19
12 14
12 18
15 19
16 17
16 18
-1
VERTEX_DEGREE:
6.0 2.0 9.0 5.0 3.0 3.0 3.0 6.0 2.0 0.0 2.0 1.0 6.0 0.0 5.0 4.0 5.0 2.0 4.0 5.0 3.0
VERTEX_COVER:
2 3 5 6 12 14 15 16 18 19 20
EOF
